%chk=Al4O6.chk
%mem=50GB
%nprocshared=64
# opt freq m062x/aug-cc-pvdz

Title Card Required

0 1
Al 0 -0.9521406981 0.9521406981 0.9521406981
O 0 0. 2.0469130699 0.
O 0 -2.0469130699 0. 0.
O 0 0. 0. 2.0469130699
Al 0 0.9521406981 -0.9521406981 0.9521406981
Al 0 -0.9521406981 -0.9521406981 -0.9521406981
Al 0 0.9521406981 0.9521406981 -0.9521406981
O 0 0. -2.0469130699 0.
O 0 0. 0. -2.0469130699
O 0 2.0469130699 0. 0.

