%chk=h2o-ts1-fopt.chk
%mem=50GB
%nprocshared=64
# opt freq m062x/aug-cc-pvdz

Title Card Required

0 1
 Al                -0.82671400    1.35925500    0.77310000
 O                  0.85916200    1.57022800    0.57311300
 O                 -1.77793100    1.26489900   -0.68588800
 O                 -1.20200700    0.05806500    1.90579800
 Al                -0.70794200   -1.29107400    0.96163300
 Al                -1.05877900   -0.14415900   -1.42262300
 Al                 1.58428700    0.24860500   -0.36802300
 O                 -1.46804600   -1.61251200   -0.54208700
 O                  0.60776200   -0.05927600   -1.80805300
 O                  1.06028600   -1.37574300    0.75084000
 O                  3.26789500   -0.08791800   -0.17387000
 H                  3.93781500    0.58548000   -0.29285000
 H                  1.69932400   -1.36222100    1.47467800

