%chk=h2o-ts2-fopt.chk
%mem=50GB
%nprocshared=64
# opt freq m062x/aug-cc-pvdz

Title Card Required

0 1
 Al                 0.62592500   -0.49268600    1.45862500
 O                 -1.09551300   -0.47647000    1.60076900
 O                  1.21361200   -1.73808500    0.40048400
 O                  1.43410000    1.02484400    1.30911700
 Al                 1.36648400    1.58964300   -0.33381000
 Al                 0.61811500   -1.08657700   -1.09814200
 Al                -1.98094500   -0.69647900    0.12217500
 O                  1.39067000    0.38098800   -1.57418400
 O                 -1.09300300   -1.20751400   -1.27300400
 O                  0.91931600    3.18951700   -0.73026700
 O                 -3.62573300   -0.26219600   -0.02755900
 H                 -4.11221700    0.05270200    0.73707500
 H                  0.85116400    3.85596300   -0.04582900

