%chk=h2o-ts2-irc.chk
%mem=50GB
%nprocshared=64
# opt=(calcfc,ts,noeigen) freq aug-cc-pvdz m062x

Title Card Required

0 1
 Al                 0.77414600   -0.51569500    1.48956000
 O                 -0.93532400   -0.32393300    1.57034700
 O                  1.31778600   -1.78517900    0.43035100
 O                  1.64250100    0.98626700    1.29057000
 Al                 1.19456500    1.39865700   -0.33163700
 Al                 0.77006300   -1.15401200   -1.09971200
 Al                -1.73631800   -0.24658100    0.01511500
 O                  1.61798000    0.29052200   -1.58478500
 O                 -0.93667600   -1.07951500   -1.28626700
 O                 -0.40925500    2.05491900   -0.51070700
 O                 -3.35290300    0.29823900   -0.13391700
 H                 -3.82749800    0.58852300    0.64719500
 H                 -0.75731500    2.61011400    0.19482100

