%chk=h2o-ts1-irc.chk
%mem=50GB
%nprocshared=64
# opt=(calcfc,ts,noeigen) freq aug-cc-pvdz m062x

Title Card Required

0 1
 Al                 0.97505400   -0.48908100    1.42346100
 O                 -0.67667700   -1.00614900    1.49808300
 O                  1.93008500   -1.28563800    0.19862200
 O                  1.15803700    1.25121300    1.41904900
 Al                 0.45761200    1.64007500   -0.12496500
 Al                 1.12568000   -0.71069100   -1.24074500
 Al                -1.36816100   -0.55277400   -0.05473200
 O                  1.32383300    1.00870500   -1.49374900
 O                 -0.51034300   -1.25315200   -1.41297200
 O                 -1.24818200    1.33753700   -0.20455000
 O                 -3.13676600    0.01571800   -0.08491900
 H                 -3.67332500   -0.07208300    0.71089200
 H                 -2.51897900    0.98833800   -0.10666400

