%chk=h2o-rc-scan.chk
%mem=50GB
%nprocshared=64
# opt=modredundant aug-cc-pvdz m062x

Title Card Required

0 1
 Al                 0.75095600    1.32358600   -0.87428100
 O                 -0.96844300    1.45101700   -0.67294400
 O                  1.66240100    1.47001700    0.60926400
 O                  1.24583600   -0.03427300   -1.85851900
 Al                 0.74928200   -1.35494800   -0.82585500
 Al                 1.12769500    0.02577700    1.43668200
 Al                -1.35873100    0.00583800    0.28643200
 O                  1.66017600   -1.44837600    0.66234400
 O                 -0.55644100    0.03417900    1.85211700
 O                 -0.97017400   -1.47356700   -0.62026200
 O                 -3.26944900    0.00245000    0.10130500
 H                 -3.46572900    0.77399700   -0.45666000
 H                 -3.46514800   -0.78885700   -0.42849400

B 7 11 S 20 0.100000

