%chk=h2o-ts1.chk
%mem=50GB
%nprocshared=64
# opt=(calcfc,ts,noeigen) freq m062x/aug-cc-pvdz

Title Card Required

0 1
Al 0 -0.8774644392 1.4026399673 0.7559228242
O 0 0.8024275605 1.6816251851 0.5087994709
O 0 -1.8059022666 1.3082757375 -0.7063791035
O 0 -1.1915663149 0.0827660603 1.8443212016
Al 0 -0.6005317175 -1.2618577424 0.9332654442
Al 0 -1.1260183343 -0.1111709519 -1.437936904
Al 0 1.4034138555 0.3050362251 -0.3837046984
O 0 -1.4621310364 -1.5579039229 -0.5342931133
O 0 0.5318707457 0.0487458254 -1.8677106646
O 0 1.1107595506 -1.2245272233 0.7060943097
O 0 3.0996800195 -0.3052375616 -0.0060491203
H 0 3.7036626682 0.2162222948 0.5424124817
H 0 2.3908933289 -1.0314922033 0.5992490718

