%chk=h2o-ts2.chk
%mem=50GB
%nprocshared=64
# opt=(calcfc,ts,noeigen) freq m062x/aug-cc-pvdz

Title Card Required

0 1
Al 0 0.7600108052 -0.5452363386 1.4833449856
O 0 -0.936688326 -0.3328875447 1.5366436516
O 0 1.2840931274 -1.7943225616 0.4066032333
O 0 1.6396933405 0.9394236833 1.2991598571
Al 0 1.2202892867 1.3925526276 -0.3086245488
Al 0 0.7609630564 -1.1474027786 -1.1141572287
Al 0 -1.7465110448 -0.2289070913 0.0025297857
O 0 1.6191506588 0.2903128414 -1.5590959472
O 0 -0.9337105512 -1.0390996307 -1.2853454004
O 0 -0.3620523042 2.0743654969 -0.4786621472
O 0 -3.3512641372 0.3199549269 -0.1287184629
H 0 -3.8484143637 0.6015304321 0.6466562707
H 0 -0.7161125481 2.6702469371 0.1949749511

